NAME: Random_65_5
ELLAPSED_TIME_(ms): 190
TOUR_SIZE: 1247
TOUR_SECTION
0
62
13
34
60
61
57
56
21
54
43
53
9
8
50
36
33
48
1
32
5
25
29
19
40
18
64
10
42
35
38
63
59
16
4
17
3
26
31
49
22
12
27
52
44
6
23
45
24
15
37
41
11
7
55
46
30
47
51
28
2
58
39
14
20
0
EOF
